(declare-const a Real)
(declare-const b Real)
(declare-const c Real)
(assert (= (* a b c) 1))
(assert (> a 0))
(assert (> b 0))
(assert (> c 0))
(assert (not (<= (+ (* -86497536 (pow b 4)) (* -66738432 (pow a 4)) (* (pow (+ 104058 (* 86006784 b (pow a 3)) (* 295394304 a (pow b 3))) -3) (pow (+ (* 208116 a) (* 208116 b) (* 86006784 b (pow a 3)) (* 295394304 a (pow b 3))) 4)) (* -169869312 (pow a (pow 3 -1)) (pow b (/ 11 3))) (* -84934656 (pow a (/ 10 3)) (pow b (/ 2 3)))) 0)))
(check-sat)
(get-model)
(exit)